 vasp.5.3.5 31Mar14 (build Dec 15 2021 16:28:04) complex

 executed on             LinuxIFC date 2022.11.07  14:49:06

 INCAR:
 POTCAR:   PAW_PBE Mo 08Apr2002
 POTCAR:    PAW_PBE S 17Jan2003
 POTCAR:   PAW_PBE Mo 08Apr2002
   VRHFIN =Mo: 4p5s4d

   TITEL  = PAW_PBE Mo 08Apr2002
   POMASS =   95.940; ZVAL   =    6.000    mass and valenz
   ENMAX  =  224.584; ENMIN  =  168.438 eV
   QCUT   =   -4.063; QGAM   =    8.126    optimization parameters

   Description
     l     E      TYP  RCUT    TYP  RCUT
     2   .000     23  2.500
     2   .000     23  2.500
     0   .000     23  2.600
     0  1.000     23  2.600
     1   .400     23  2.750
     1  2.000     23  2.750
     3   .000      7   .000

 POTCAR:    PAW_PBE S 17Jan2003
   VRHFIN =S : s2p4

   TITEL  = PAW_PBE S 17Jan2003
   POMASS =   32.066; ZVAL   =    6.000    mass and valenz
   ENMAX  =  280.000; ENMIN  =  194.016 eV
   QCUT   =   -4.360; QGAM   =    8.721    optimization parameters

   Description
     l     E      TYP  RCUT    TYP  RCUT
     0   .000     23  1.900
     0   .000     23  1.900
     1   .000     23  1.900
     1   .000     23  1.900
     2   .000     23  1.900

 Optimization of the real space projectors (new method)

 maximal supplied QI-value         = 13.61
 optimisation between [QCUT,QGAM] = [ 10.75, 21.63] = [ 32.35,131.06] Ry
 Optimized for a Real-space Cutoff    1.65 Angstroem

   l    n(q)    QCUT    max X(q) W(low)/X(q) W(high)/X(q)  e(spline)
   2     10    10.749     3.671    0.88E-05    0.15E-04    0.45E-07
   2     10    10.749    29.382    0.28E-03    0.26E-03    0.46E-06
   0     11    10.749    26.379    0.16E-04    0.26E-05    0.13E-07
   0     11    10.749    49.709    0.28E-04    0.33E-04    0.71E-07
   1     10    10.749     7.852    0.25E-04    0.36E-05    0.52E-07
   1     10    10.749    10.693    0.11E-03    0.50E-05    0.16E-06
 Optimization of the real space projectors (new method)

 maximal supplied QI-value         = 19.84
 optimisation between [QCUT,QGAM] = [ 10.71, 21.63] = [ 32.15,130.99] Ry
 Optimized for a Real-space Cutoff    1.19 Angstroem

   l    n(q)    QCUT    max X(q) W(low)/X(q) W(high)/X(q)  e(spline)
   0      8    10.715     5.487    0.15E-04    0.93E-05    0.46E-08
   0      8    10.715    85.627    0.41E-03    0.53E-04    0.65E-07
   1      7    10.715     3.530    0.38E-04    0.32E-04    0.16E-07
   1      7    10.715    42.714    0.19E-03    0.58E-03    0.67E-07
 PAW_PBE Mo 08Apr2002                   :
  PAW_PBE S 17Jan2003                   :

 POSCAR: 1_layer-MoS2
  positions in direct lattice
 exchange correlation table for  LEXCH =        8
   RHO(1)=    0.500       N(1)  =     2000
   RHO(2)=  100.500       N(2)  =     4000

 VTST: version 3.2, (02/03/18)

 CHAIN: initializing optimizer

 OPT: Using VASP Conjugate-Gradient optimizer
 CHAIN: Read ICHAIN            0

 POSCAR: 1_layer-MoS2
  positions in direct lattice

 ion  position               nearest neighbor table
   1  0.667  0.333  0.446-   2 2.42   2 2.42   3 2.42   3 2.42   2 2.42   3 2.42
   2  0.333  0.667  0.509-   1 2.42   1 2.42   1 2.42
   3  0.333  0.667  0.384-   1 2.42   1 2.42   1 2.42

  LATTYP: Found a hexagonal cell.
 ALAT       =     3.1902999878
 C/A-ratio  =     7.8362536739

  Lattice vectors:

 A1 = (   3.1902999878,   0.0000000000,   0.0000000000)
 A2 = (  -1.5951499939,   2.7628808351,   0.0000000000)
 A3 = (   0.0000000000,   0.0000000000,  25.0000000000)

Analysis of symmetry for initial positions (statically):
 Subroutine PRICEL returns:
 Original cell was already a primitive cell.

 Routine SETGRP: Setting up the symmetry group for a
 hexagonal supercell.

 Subroutine GETGRP returns: Found  4 space group operations
 (whereof  2 operations were pure point group operations)
 out of a pool of 24 trial point group operations.

The static configuration has the point symmetry C_1h.
 The point group associated with its full space group is C_2v.

Analysis of symmetry for dynamics (positions and initial velocities):
 Subroutine PRICEL returns:
 Original cell was already a primitive cell.

 Routine SETGRP: Setting up the symmetry group for a
 hexagonal supercell.

 Subroutine GETGRP returns: Found  4 space group operations
 (whereof  2 operations were pure point group operations)
 out of a pool of 24 trial point group operations.

The dynamic configuration has the point symmetry C_1h.
 The point group associated with its full space group is C_2v.

 KPOINTS: Automatic generation

Automatic generation of k-mesh.
Space group operators:
 irot       det(A)        alpha          n_x          n_y          n_z        tau_x        tau_y        tau_z
    1     1.000000     0.000000     1.000000     0.000000     0.000000     0.000000     0.000000     0.000000
    2    -1.000000   180.000000    -0.500000    -0.866025     0.000000     0.000000     0.000000     0.000000
    3    -1.000000   180.000000     0.000000     0.000000     1.000000     0.000000     0.000000     0.892740
    4     1.000000   180.000000     0.866025    -0.500000     0.000000     0.000000     0.000000     0.892740

 Subroutine IBZKPT returns following result:

 Found     64 irreducible k-points:

 Following reciprocal coordinates:
            Coordinates               Weight
  0.000000  0.000000  0.000000      1.000000
  0.066667  0.000000  0.000000      4.000000
  0.133333 -0.000000  0.000000      4.000000
  0.200000 -0.000000  0.000000      4.000000
  0.266667  0.000000  0.000000      4.000000
  0.333333  0.000000  0.000000      4.000000
  0.400000 -0.000000  0.000000      4.000000
  0.466667  0.000000  0.000000      4.000000
  0.066667  0.066667  0.000000      2.000000
  0.133333  0.066667  0.000000      4.000000
  0.200000  0.066667  0.000000      4.000000
  0.266667  0.066667  0.000000      4.000000
  0.333333  0.066667  0.000000      4.000000
  0.400000  0.066667  0.000000      4.000000
  0.466667  0.066667  0.000000      4.000000
 -0.466667  0.066667  0.000000      4.000000
 -0.400000  0.066667  0.000000      4.000000
 -0.333333  0.066667  0.000000      4.000000
 -0.266667  0.066667  0.000000      4.000000
 -0.200000  0.066667  0.000000      4.000000
 -0.133333  0.066667  0.000000      4.000000
 -0.066667  0.066667  0.000000      2.000000
  0.133333  0.133333  0.000000      2.000000
  0.200000  0.133333  0.000000      4.000000
  0.266667  0.133333  0.000000      4.000000
  0.333333  0.133333  0.000000      4.000000
  0.400000  0.133333  0.000000      4.000000
  0.466667  0.133333  0.000000      4.000000
 -0.466667  0.133333  0.000000      4.000000
 -0.400000  0.133333  0.000000      4.000000
 -0.333333  0.133333  0.000000      4.000000
 -0.266667  0.133333  0.000000      4.000000
 -0.200000  0.133333  0.000000      4.000000
 -0.133333  0.133333  0.000000      2.000000
  0.200000  0.200000  0.000000      2.000000
  0.266667  0.200000  0.000000      4.000000
  0.333333  0.200000  0.000000      4.000000
  0.400000  0.200000  0.000000      4.000000
  0.466667  0.200000  0.000000      4.000000
 -0.466667  0.200000  0.000000      4.000000
 -0.400000  0.200000  0.000000      4.000000
 -0.333333  0.200000  0.000000      4.000000
 -0.266667  0.200000  0.000000      4.000000
 -0.200000  0.200000  0.000000      2.000000
  0.266667  0.266667  0.000000      2.000000
  0.333333  0.266667  0.000000      4.000000
  0.400000  0.266667  0.000000      4.000000
  0.466667  0.266667  0.000000      4.000000
 -0.466667  0.266667  0.000000      4.000000
 -0.400000  0.266667  0.000000      4.000000
 -0.333333  0.266667  0.000000      4.000000
 -0.266667  0.266667  0.000000      2.000000
  0.333333  0.333333  0.000000      2.000000
  0.400000  0.333333  0.000000      4.000000
  0.466667  0.333333  0.000000      4.000000
 -0.466667  0.333333  0.000000      4.000000
 -0.400000  0.333333  0.000000      4.000000
 -0.333333  0.333333  0.000000      2.000000
  0.400000  0.400000  0.000000      2.000000
  0.466667  0.400000  0.000000      4.000000
 -0.466667  0.400000  0.000000      4.000000
 -0.400000  0.400000  0.000000      2.000000
  0.466667  0.466667  0.000000      2.000000
 -0.466667  0.466667  0.000000      2.000000

 Following cartesian coordinates:
            Coordinates               Weight
  0.000000  0.000000  0.000000      1.000000
  0.020897  0.012065  0.000000      4.000000
  0.041793  0.024129  0.000000      4.000000
  0.062690  0.036194  0.000000      4.000000
  0.083587  0.048259  0.000000      4.000000
  0.104483  0.060324  0.000000      4.000000
  0.125380  0.072388  0.000000      4.000000
  0.146277  0.084453  0.000000      4.000000
  0.020897  0.036194  0.000000      2.000000
  0.041793  0.048259  0.000000      4.000000
  0.062690  0.060324  0.000000      4.000000
  0.083587  0.072388  0.000000      4.000000
  0.104483  0.084453  0.000000      4.000000
  0.125380  0.096518  0.000000      4.000000
  0.146277  0.108582  0.000000      4.000000
 -0.146277 -0.060324  0.000000      4.000000
 -0.125380 -0.048259  0.000000      4.000000
 -0.104483 -0.036194  0.000000      4.000000
 -0.083587 -0.024129  0.000000      4.000000
 -0.062690 -0.012065  0.000000      4.000000
 -0.041793  0.000000  0.000000      4.000000
 -0.020897  0.012065  0.000000      2.000000
  0.041793  0.072388  0.000000      2.000000
  0.062690  0.084453  0.000000      4.000000
  0.083587  0.096518  0.000000      4.000000
  0.104483  0.108582  0.000000      4.000000
  0.125380  0.120647  0.000000      4.000000
  0.146277  0.132712  0.000000      4.000000
 -0.146277 -0.036194  0.000000      4.000000
 -0.125380 -0.024129  0.000000      4.000000
 -0.104483 -0.012065  0.000000      4.000000
 -0.083587  0.000000  0.000000      4.000000
 -0.062690  0.012065  0.000000      4.000000
 -0.041793  0.024129  0.000000      2.000000
  0.062690  0.108582  0.000000      2.000000
  0.083587  0.120647  0.000000      4.000000
  0.104483  0.132712  0.000000      4.000000
  0.125380  0.144776  0.000000      4.000000
  0.146277  0.156841  0.000000      4.000000
 -0.146277 -0.012065  0.000000      4.000000
 -0.125380  0.000000  0.000000      4.000000
 -0.104483  0.012065  0.000000      4.000000
 -0.083587  0.024129  0.000000      4.000000
 -0.062690  0.036194  0.000000      2.000000
  0.083587  0.144776  0.000000      2.000000
  0.104483  0.156841  0.000000      4.000000
  0.125380  0.168906  0.000000      4.000000
  0.146277  0.180971  0.000000      4.000000
 -0.146277  0.012065  0.000000      4.000000
 -0.125380  0.024129  0.000000      4.000000
 -0.104483  0.036194  0.000000      4.000000
 -0.083587  0.048259  0.000000      2.000000
  0.104483  0.180971  0.000000      2.000000
  0.125380  0.193035  0.000000      4.000000
  0.146277  0.205100  0.000000      4.000000
 -0.146277  0.036194  0.000000      4.000000
 -0.125380  0.048259  0.000000      4.000000
 -0.104483  0.060324  0.000000      2.000000
  0.125380  0.217165  0.000000      2.000000
  0.146277  0.229229  0.000000      4.000000
 -0.146277  0.060324  0.000000      4.000000
 -0.125380  0.072388  0.000000      2.000000
  0.146277  0.253359  0.000000      2.000000
 -0.146277  0.084453  0.000000      2.000000

 I would recommend the setting:
   dimension x,y,z NGX =    17 NGY =   17 NGZ =  130
 SYSTEM =  opt
 POSCAR =  1_layer-MoS2

[...]
 k-point 27 :   0.4000 0.1333 0.0000  plane waves:    4743
 k-point 28 :   0.4667 0.1333 0.0000  plane waves:    4743
 k-point 29 :  -0.4667 0.1333 0.0000  plane waves:    4763
 k-point 30 :  -0.4000 0.1333 0.0000  plane waves:    4773
 k-point 31 :  -0.3333 0.1333 0.0000  plane waves:    4787
 k-point 32 :  -0.2667 0.1333 0.0000  plane waves:    4789
 k-point 33 :  -0.2000 0.1333 0.0000  plane waves:    4825
 k-point 34 :  -0.1333 0.1333 0.0000  plane waves:    4837
 k-point 35 :   0.2000 0.2000 0.0000  plane waves:    4787
 k-point 36 :   0.2667 0.2000 0.0000  plane waves:    4775
 k-point 37 :   0.3333 0.2000 0.0000  plane waves:    4760
 k-point 38 :   0.4000 0.2000 0.0000  plane waves:    4760
 k-point 39 :   0.4667 0.2000 0.0000  plane waves:    4760
 k-point 40 :  -0.4667 0.2000 0.0000  plane waves:    4775
 k-point 41 :  -0.4000 0.2000 0.0000  plane waves:    4787
 k-point 42 :  -0.3333 0.2000 0.0000  plane waves:    4787
 k-point 43 :  -0.2667 0.2000 0.0000  plane waves:    4801
 k-point 44 :  -0.2000 0.2000 0.0000  plane waves:    4809
 k-point 45 :   0.2667 0.2667 0.0000  plane waves:    4766
 k-point 46 :   0.3333 0.2667 0.0000  plane waves:    4757
 k-point 47 :   0.4000 0.2667 0.0000  plane waves:    4757
 k-point 48 :   0.4667 0.2667 0.0000  plane waves:    4766
 k-point 49 :  -0.4667 0.2667 0.0000  plane waves:    4775
 k-point 50 :  -0.4000 0.2667 0.0000  plane waves:    4773
 k-point 51 :  -0.3333 0.2667 0.0000  plane waves:    4789
 k-point 52 :  -0.2667 0.2667 0.0000  plane waves:    4792
 k-point 53 :   0.3333 0.3333 0.0000  plane waves:    4776
 k-point 54 :   0.4000 0.3333 0.0000  plane waves:    4757
 k-point 55 :   0.4667 0.3333 0.0000  plane waves:    4760
 k-point 56 :  -0.4667 0.3333 0.0000  plane waves:    4763
 k-point 57 :  -0.4000 0.3333 0.0000  plane waves:    4757
 k-point 58 :  -0.3333 0.3333 0.0000  plane waves:    4770
 k-point 59 :   0.4000 0.4000 0.0000  plane waves:    4760
 k-point 60 :   0.4667 0.4000 0.0000  plane waves:    4743
 k-point 61 :  -0.4667 0.4000 0.0000  plane waves:    4735
 k-point 62 :  -0.4000 0.4000 0.0000  plane waves:    4754
 k-point 63 :   0.4667 0.4667 0.0000  plane waves:    4722
 k-point 64 :  -0.4667 0.4667 0.0000  plane waves:    4722

 maximum and minimum number of plane-waves per node :      4875     4722

 maximum number of plane-waves:      4875
 maximum index in each direction:
   IXMAX=    5   IYMAX=    5   IZMAX=   43
   IXMIN=   -5   IYMIN=   -5   IZMIN=  -43

 WARNING: aliasing errors must be expected set NGX to  22 to avoid them
 WARNING: aliasing errors must be expected set NGY to  22 to avoid them
 WARNING: aliasing errors must be expected set NGZ to 174 to avoid them
 aliasing errors are usually negligible using standard VASP settings
 and one can safely disregard these warnings

 serial   3D FFT for wavefunctions
 parallel 3D FFT for charge:
    minimum data exchange during FFTs selected (reduces bandwidth)

 Broyden mixing: mesh for mixing (old mesh)
   NGX = 11   NGY = 11   NGZ = 87
  (NGX  = 36   NGY  = 36   NGZ  =280)
  gives a total of  10527 points

 initial charge density was supplied:
 charge density of overlapping atoms calculated
 number of electron      18.0000000 magnetization
 keeping initial charge density in first step

 Maximum index for non-local projection operator         3750
 Maximum index for augmentation-charges         3117 (set IRDMAX)

 First call to EWALD:  gamma=   0.293
 Maximum number of real-space cells 5x 5x 1
 Maximum number of reciprocal cells 2x 2x10

 FEWALD executed in parallel

----------------------------------------- Iteration    1(   1)  ---------------------------------------

 eigenvalue-minimisations  :  2048
 total energy-change (2. order) : 0.1239721E+03  (-0.5544450E+03)
 number of electron      18.0000000 magnetization
 augmentation part       18.0000000 magnetization

 Free energy of the ion-electron system (eV)
  alpha Z        PSCENC =        13.45458787
  Ewald energy   TEWEN  =      3780.59776806
  -Hartree energ DENC   =     -4466.65093373
  -exchange      EXHF   =         0.00000000
  -V(xc)+E(xc)   XCENC  =       -36.31090320
  PAW double counting   =       406.88651198     -329.34073203
  entropy T*S    EENTRO =        -0.00777883
  eigenvalues    EBANDS =       -15.81157494
  atomic energy  EATOM  =       771.15511399
  free energy    TOTEN  =       123.97205918 eV

  energy without entropy =      123.97983801  energy(sigma->0) =      123.97594859

[...]

 eigenvalue-minimisations  :  3352
 total energy-change (2. order) :-0.1335342E+03  (-0.1240001E+03)
 number of electron      18.0000000 magnetization
 augmentation part       18.0000000 magnetization

[...]

 Broyden mixing:
  rms(total) = 0.68879E+00    rms(broyden)= 0.68878E+00
  rms(prec ) = 0.75460E+00
  weight for this iteration     100.00

[...]

 eigenvalues of (default mixing * dielectric matrix)
  average eigenvalue GAMMA=   0.7943
  0.7943

[...]

 average (electrostatic) potential at core
  the test charge radii are     1.2296  0.9698
  (the norm of the test charge is              1.0000)
       1 -46.6943       2 -94.5319       3 -94.5319

 E-fermi :  -2.8283     XC(G=0):  -3.1677     alpha+bet : -2.8677

 k-point     1 :       0.0000    0.0000    0.0000
  band No.  band energies     occupation
      1     -17.2816      2.00000
      2     -16.0736      2.00000
      3      -8.8018      2.00000
      4      -5.8408      2.00000
      5      -5.8407      2.00000
      6      -4.9800      2.00000
      7      -4.7354      2.00000
      8      -4.7351      2.00000
      9      -3.2602      2.00000
     10      -0.4882      0.00000
     11      -0.4878      0.00000
     12      -0.2645      0.00000
     13      -0.2644      0.00000
     14       2.0797      0.00000
     15       2.2271      0.00000
     16       2.7290      0.00000

[...]

 soft charge-density along one line, spin component           1
         0         1         2         3         4         5         6         7         8         9
 total charge-density along one line

------------------------ aborting loop because EDIFF is reached ----------------------------------------

         DFTD3 V3.0 Rev 1
 IVDW         = 11
 DF pbe
 parameters
 VDW_S6       =    1.0000
 VDW_S8       =    0.7220
 VDW_SR       =    1.2170
 rs18     =    1.0000
 alpha6   =   14.0000
 alpha8   =   16.0000
 k1-k3    =   16.0000    1.3333   -4.0000
 VDW_RADIUS   =   50.2022 A
 VDW_CNRADIUS =   21.1671 A
 Edisp (eV)   -0.49504

 E6    (eV) :    -0.2039
 E8    (eV) :    -0.2911
 % E8        : 58.81

  FORCE on cell =-STRESS in cart. coord.  units (eV):
  Direction    XX          YY          ZZ          XY          YZ          ZX
  Alpha Z    13.45459    13.45459    13.45459
  Ewald    4347.45519  4347.45959 -4914.31731     0.00381    -0.00000     0.00000
  Hartree  4441.17079  4441.17169 -4402.90145     0.00078    -0.00000     0.00000
  E(xc)     -70.29627   -70.29633   -70.90076    -0.00005    -0.00000     0.00000
  Local   -9070.28005 -9070.28506  9029.61043    -0.00434     0.00000    -0.00000
  n-local   126.29188   126.59567   131.65360    -0.08722     0.00001     0.00001
  augment   -25.56307   -25.56300   -26.66519     0.00006     0.00000    -0.00000
  Kinetic   232.95022   241.62718   239.80134    -2.50533     0.00000     0.00000
  Fock        0.00000     0.00000     0.00000     0.00000     0.00000     0.00000
  vdW        -0.55493    -0.55494    -0.12313    -0.00001    -0.00000     0.00000
  Total      -0.88123    -0.88101    -0.38788     0.00019     0.00000     0.00000
  in kB      -6.40720    -6.40560    -2.82014     0.00139     0.00000     0.00000

 VOLUME and BASIS-vectors are now :
  energy-cutoff  :      450.00
  volume of cell :      220.36
      direct lattice vectors                 reciprocal lattice vectors
     3.190299988  0.000000000  0.000000000     0.313450147  0.180970527  0.000000000
    -1.595149994  2.762880835  0.000000000     0.000000000  0.361941053  0.000000000
     0.000000000  0.000000000 25.000000000     0.000000000  0.000000000  0.040000000

[...]

 FORCES acting on ions
    electron-ion (+dipol)            ewald-force                    non-local-force                 convergence-correction
   0.171E-02 -.989E-03 -.279E-05   -.186E-02 0.108E-02 0.716E-06   -.502E-03 0.290E-03 0.000E+00   -.304E-06 0.176E-06 -.678E-07
   -.961E-03 0.540E-03 -.569E+03   0.931E-03 -.538E-03 0.574E+03   0.376E-03 -.217E-03 -.482E+01   -.886E-07 0.500E-07 0.199E-01
   -.961E-03 0.540E-03 0.569E+03   0.931E-03 -.538E-03 -.574E+03   0.376E-03 -.217E-03 0.482E+01   -.886E-07 0.500E-07 -.199E-01
   -.209E-03 0.917E-04 0.198E-04   -.914E-14 -.999E-15 0.114E-12   0.250E-03 -.144E-03 0.000E+00   -.482E-06 0.276E-06 -.147E-06

 POSITION                                       TOTAL-FORCE (eV/Angst)
      1.59517      0.92095     11.15925        -0.000672      0.000388      0.000000
     -0.00002      1.84193     12.72425         0.000336     -0.000194     -0.125292
     -0.00002      1.84193      9.59425         0.000336     -0.000194      0.125292
    total drift:                                0.000041     -0.000052      0.000020

  FREE ENERGIE OF THE ION-ELECTRON SYSTEM (eV)
  free  energy   TOTEN  =       -22.29283910 eV

  energy  without entropy=      -22.29283910  energy(sigma->0) =      -22.29283910

 stress matrix after NEB project (eV)
     -0.88123      0.00019      0.00000
      0.00019     -0.88101      0.00000
      0.00000      0.00000     -0.38788
  FORCES: max atom, RMS     0.125292    0.102302
  FORCE total and by dimension    0.177192    0.125292
  Stress total and by dimension    1.305071    0.881235

[...]

         DFTD3 V3.0 Rev 1
 Edisp (eV)   -0.49532

[...]

 d Force = 0.6374598E-03[ 0.366E-03, 0.909E-03]  d Energy = 0.7622684E-03-0.125E-03
 d Force =-0.4164956E+01[-0.417E+01,-0.416E+01]  d Ewald  =-0.4164957E+01 0.601E-06

 stress matrix after NEB project (eV)
     -0.80862      0.00001      0.00000
      0.00001     -0.80860      0.00000
      0.00000      0.00000     -0.18824
  FORCES: max atom, RMS     0.050476    0.041213
  FORCE total and by dimension    0.071383    0.050476
  Stress total and by dimension    1.158939    0.808619
 Steepest descent step on ions:
 trial-energy change:   -0.000762  1 .order   -0.000637   -0.000909   -0.000366
  (g-gl).g = 0.909E-03      g.g   = 0.909E-03  gl.gl    = 0.000E+00
 g(Force)  = 0.909E-03   g(Stress)= 0.000E+00 ortho     = 0.000E+00
 gamma     =   0.00000
 trial     =   1.00000
 opt step  =   1.67464  (harmonic =   1.67464) maximal distance =0.00607332
 next E    =   -22.293600   (d E  =  -0.00076)

 FEWALD executed in parallel

[...]

 eigenvalue-minimisations  :  2048
 total energy-change (2. order) : 0.1002013E-03  (-0.1228839E-02)
 number of electron      17.9999997 magnetization
 augmentation part       -0.5489809 magnetization

[...]

 Broyden mixing:
  rms(total) = 0.34769E-03    rms(broyden)= 0.34768E-03
  rms(prec ) = 0.37232E-03
  weight for this iteration     100.00

 eigenvalues of (default mixing * dielectric matrix)
  average eigenvalue GAMMA=   1.3270
  2.3367  1.0152  0.6293

[...]

----------------------------------------- Iteration    3(   5)  ---------------------------------------

 eigenvalue-minimisations  :  1976
 total energy-change (2. order) :-0.4704477E-05  (-0.1770926E-06)
 number of electron      17.9999997 magnetization
 augmentation part       -0.5497922 magnetization

 Free energy of the ion-electron system (eV)
  alpha Z        PSCENC =        13.45458787
  Ewald energy   TEWEN  =      3787.57313940
  -Hartree energ DENC   =     -4486.09540505
  -exchange      EXHF   =         0.00000000
  -V(xc)+E(xc)   XCENC  =       -35.17346613
  PAW double counting   =       473.27845973     -397.48568075
  entropy T*S    EENTRO =        -0.00000000
  eigenvalues    EBANDS =      -148.50497750
  atomic energy  EATOM  =       771.15511399
  free energy    TOTEN  =       -21.79822844 eV

  energy without entropy =      -21.79822844  energy(sigma->0) =      -21.79822844

 average (electrostatic) potential at core
  the test charge radii are     1.2296  0.9698
  (the norm of the test charge is              1.0000)
       1 -46.6834       2 -94.5301       3 -94.5301

 E-fermi :  -2.8296     XC(G=0):  -3.0841     alpha+bet : -2.8677

[...]

 k-point    64 :      -0.4667    0.4667    0.0000
  band No.  band energies     occupation
      1     -15.5379      2.00000
      2     -15.2683      2.00000
      3      -8.9470      2.00000
      4      -7.9751      2.00000
      5      -7.2885      2.00000
      6      -6.3936      2.00000
      7      -5.0747      2.00000
      8      -4.2331      2.00000
      9      -3.9073      2.00000
     10      -1.0794      0.00000
     11      -0.5764      0.00000
     12       0.6440      0.00000
     13       1.0148      0.00000
     14       3.0199      0.00000
     15       4.7119      0.00000
     16       4.9843      0.00000

 soft charge-density along one line, spin component           1
         0         1         2         3         4         5         6         7         8         9
 total charge-density along one line

------------------------ aborting loop because EDIFF is reached ----------------------------------------

         DFTD3 V3.0 Rev 1
 Edisp (eV)   -0.49551

 E6    (eV) :    -0.2039
 E8    (eV) :    -0.2916
 % E8        : 58.85

  FORCE on cell =-STRESS in cart. coord.  units (eV):
  Direction    XX          YY          ZZ          XY          YZ          ZX
  Alpha Z    13.45459    13.45459    13.45459
  Ewald    4354.90984  4354.90750 -4922.24449    -0.00203     0.00000    -0.00000
  Hartree  4447.78700  4447.78653 -4409.51022    -0.00041     0.00000    -0.00000
  E(xc)     -70.34706   -70.34703   -70.95890     0.00002    -0.00000     0.00000
  Local   -9084.34957 -9084.34703  9044.01189     0.00220     0.00000    -0.00000
  n-local   126.42901   126.71006   131.78967    -0.08130     0.00001     0.00001
  augment   -25.56024   -25.56016   -26.67399     0.00007    -0.00000     0.00000
  Kinetic   232.99173   241.67585   240.21406    -2.50662     0.00000     0.00000
  Fock        0.00000     0.00000     0.00000     0.00000     0.00000     0.00000
  vdW        -0.55483    -0.55483    -0.12302     0.00000     0.00000    -0.00000
  Total      -0.75696    -0.75709    -0.04042    -0.00011     0.00000     0.00000
  in kB      -5.50367    -5.50456    -0.29387    -0.00077     0.00000     0.00000

 VOLUME and BASIS-vectors are now :
  energy-cutoff  :      450.00
  volume of cell :      220.36
      direct lattice vectors                 reciprocal lattice vectors
     3.190299988  0.000000000  0.000000000     0.313450147  0.180970527  0.000000000
    -1.595149994  2.762880835  0.000000000     0.000000000  0.361941053  0.000000000
     0.000000000  0.000000000 25.000000000     0.000000000  0.000000000  0.040000000

  length of vectors
     3.190299988  3.190299988 25.000000000     0.361941053  0.361941053  0.040000000

 FORCES acting on ions
    electron-ion (+dipol)            ewald-force                    non-local-force                 convergence-correction
   -.911E-03 0.527E-03 -.417E-06   0.992E-03 -.573E-03 0.733E-06   0.269E-03 -.155E-03 0.000E+00   0.278E-05 -.160E-05 -.831E-06
   0.497E-03 -.302E-03 -.570E+03   -.496E-03 0.286E-03 0.574E+03   -.181E-03 0.105E-03 -.472E+01   0.681E-05 -.393E-05 -.694E-02
   0.497E-03 -.302E-03 0.570E+03   -.496E-03 0.286E-03 -.574E+03   -.181E-03 0.105E-03 0.472E+01   0.681E-05 -.393E-05 0.694E-02
   0.829E-04 -.766E-04 0.255E-04   -.914E-14 -.999E-15 0.000E+00   -.936E-04 0.540E-04 0.000E+00   0.164E-04 -.947E-05 -.200E-05

 POSITION                                       TOTAL-FORCE (eV/Angst)
      1.59513      0.92097     11.15925         0.000348     -0.000201      0.000000
      0.00000      1.84192     12.71818        -0.000174      0.000100      0.001780
      0.00000      1.84192      9.60032        -0.000174      0.000100     -0.001780
    total drift:                                0.000006     -0.000032      0.000024

  FREE ENERGIE OF THE ION-ELECTRON SYSTEM (eV)
  free  energy   TOTEN  =       -22.29373814 eV

  energy  without entropy=      -22.29373814  energy(sigma->0) =      -22.29373814

 d Force = 0.1191389E-03[-0.872E-05, 0.247E-03]  d Energy = 0.1367685E-03-0.176E-04
 d Force =-0.2810415E+01[-0.281E+01,-0.281E+01]  d Ewald  =-0.2810415E+01 0.185E-06

 stress matrix after NEB project (eV)
     -0.75696     -0.00011      0.00000
     -0.00011     -0.75709      0.00000
      0.00000      0.00000     -0.04042
  FORCES: max atom, RMS     0.001791    0.001481
  FORCE total and by dimension    0.002565    0.001780
  Stress total and by dimension    1.071358    0.757087

 reached required accuracy - stopping structural energy minimisation